Optimize a model with 1221 rows, 8379 columns and 25630 nonzeros
Model has 380 quadratic objective terms
Model has 400 quadratic constraints
Coefficient statistics:
  Matrix range    [1e+00, 1e+03]
  Objective range [0e+00, 0e+00]
  Bounds range    [1e+00, 2e+01]
  RHS range       [1e+00, 5e+03]
Presolve removed 79 rows and 1064 columns
Presolve time: 0.04s
Presolved: 28066 rows, 20767 columns, 102066 nonzeros
Variable types: 13832 continuous, 6935 integer (6916 binary)

Root relaxation: objective 0.000000e+00, 12633 iterations, 2.21 seconds

    Nodes    |    Current Node    |     Objective Bounds      |     Work
 Expl Unexpl |  Obj  Depth IntInf | Incumbent    BestBd   Gap | It/Node Time

     0     0    0.00000    0   55          -    0.00000      -     -    3s
H    0     0                    2236.5000000    0.00000   100%     -    3s
H    0     0                    1732.1666667    0.00000   100%     -    3s
H    0     0                    1723.0000000    0.00000   100%     -    3s
     0     0    0.00000    0  276 1723.00000    0.00000   100%     -    7s
     0     0    0.00000    0  268 1723.00000    0.00000   100%     -    8s
     0     0    0.00000    0  364 1723.00000    0.00000   100%     -   13s
     0     0    0.00000    0  380 1723.00000    0.00000   100%     -   14s
     0     0    0.00000    0   93 1723.00000    0.00000   100%     -   32s
H    0     0                    1155.1666667    0.00000   100%     -   34s
     0     0    0.00000    0  104 1155.16667    0.00000   100%     -   35s
     0     0   31.50000    0   49 1155.16667   31.50000  97.3%     -   49s
     0     0   31.50000    0   87 1155.16667   31.50000  97.3%     -   51s
     0     0   31.50000    0  157 1155.16667   31.50000  97.3%     -   57s
     0     0   31.50000    0  121 1155.16667   31.50000  97.3%     -   58s
     0     0   31.50000    0   44 1155.16667   31.50000  97.3%     -   73s
     0     0   31.50000    0   47 1155.16667   31.50000  97.3%     -   74s
     0     0   31.50000    0   50 1155.16667   31.50000  97.3%     -   89s
H    0     0                     802.3666667   31.50000  96.1%     -   93s
     0     0   31.50000    0   68  802.36667   31.50000  96.1%     -   94s
     0     0   31.50000    0   61  802.36667   31.50000  96.1%     -  113s
     0     0   31.50000    0   61  802.36667   31.50000  96.1%     -  118s
     0     2   31.50000    0   61  802.36667   31.50000  96.1%     -  134s
     2     4   34.83333    2  192  802.36667   31.50000  96.1%  9738  135s
     4     5   31.50000    3   84  802.36667   31.50000  96.1%  8702  142s
     5     6   31.50000    4   88  802.36667   31.50000  96.1%  8333  147s
     7    11   42.67647    5  202  802.36667   31.50000  96.1%  8584  160s
    15    20   31.50000    6  117  802.36667   31.50000  96.1%  6832  171s
    37    38   31.50000    7  165  802.36667   31.50000  96.1%  3671  178s
    55    57   57.31250    7  216  802.36667   31.50000  96.1%  2797  183s
    61    62   31.50000    8  117  802.36667   31.50000  96.1%  2950  185s
    66    67   41.02632    8  310  802.36667   31.50000  96.1%  2963  191s
    71    72   31.50000    9  109  802.36667   31.50000  96.1%  3024  206s
    78    80   45.23684   11  182  802.36667   31.50000  96.1%  3776  212s
    84    84   31.50000   11   62  802.36667   31.50000  96.1%  3839  218s
    98    97   50.23684   12  230  802.36667   31.50000  96.1%  3605  222s
   104   108   31.50000   12   61  802.36667   31.50000  96.1%  3584  228s
   111   108   43.17500   13  207  802.36667   31.50000  96.1%  3608  233s
   133   137   31.50000   13  158  802.36667   31.50000  96.1%  3236  238s
   146   146   31.50000   14  129  802.36667   31.50000  96.1%  3112  244s
   173   173   33.62500   15  296  802.36667   31.50000  96.1%  2868  252s
   190   192   55.52500   15  244  802.36667   31.50000  96.1%  2838  258s
   201   200   34.31250   16  228  802.36667   31.50000  96.1%  2806  266s
   240   240   47.25000   27  143  802.36667   31.50000  96.1%  2530  272s
   283   289   49.80000   31  218  802.36667   31.50000  96.1%  2298  279s
   310   307   93.55000   34  223  802.36667   31.50000  96.1%  2244  285s
   323   326  150.55000   38  172  802.36667   31.50000  96.1%  2287  291s
   342   343  170.38333   41  224  802.36667   31.50000  96.1%  2312  296s
   354   355  197.55000   43  248  802.36667   31.50000  96.1%  2342  304s
   390   392  210.05000   44  136  802.36667   31.50000  96.1%  2227  311s
   411   413  264.05000   46  215  802.36667   31.50000  96.1%  2260  317s
   452   450  264.18421   50  181  802.36667   31.50000  96.1%  2177  323s
   518   517  264.18421   60  175  802.36667   31.50000  96.1%  2051  334s
   600   593  264.18421   62  209  802.36667   31.50000  96.1%  1901  345s
   704   675  383.07310   65  402  802.36667   31.50000  96.1%  1763  354s
   749   721  274.77245   72  208  802.36667   31.50000  96.1%  1729  368s
   773   747  275.10526   76  181  802.36667   31.50000  96.1%  1718  378s
   862   835  334.16667  110   88  802.36667   31.50000  96.1%  1642  386s
   919   884  334.16667  115  227  802.36667   31.50000  96.1%  1648  396s
  1061  1010  334.16667  116  182  802.36667   31.50000  96.1%  1508  407s
  1113  1053  350.88889  121  181  802.36667   31.50000  96.1%  1517  418s
  1218  1140  532.50490  151   61  802.36667   31.50000  96.1%  1469  435s
  1220  1141  283.95614   89  122  802.36667   69.80000  91.3%  1467  460s
  1221  1142  720.70343  180  136  802.36667   80.00000  90.0%  1466  480s
  1223  1143  413.94412  130   45  802.36667   80.00000  90.0%  1463  512s
  1224  1144  374.12865   85   80  802.36667   80.00000  90.0%  1462  520s
  1225  1145  389.71689   72   52  802.36667   80.00000  90.0%  1461  548s
  1226  1145  507.82766  139  123  802.36667   80.00000  90.0%  1460  558s
  1227  1146  421.23333   46  120  802.36667   80.00000  90.0%  1459  590s
  1228  1147  284.18421   75  184  802.36667   80.00000  90.0%  1457  595s
  1229  1147  492.05000  113  104  802.36667   80.00000  90.0%  1456  624s
  1230  1148  426.99298  155  151  802.36667   80.00000  90.0%  1455  630s
  1231  1149  264.18421   57   60  802.36667   80.00000  90.0%  1454  662s
  1232  1149  302.27222   99  382  802.36667   80.00000  90.0%  1453  675s
  1233  1150  471.05000  120  106  802.36667   80.00000  90.0%  1451  705s
H 1233  1092                     751.0000000   80.00000  89.3%  1451  715s
  1235  1093  399.53388   95  155  751.00000   80.00000  89.3%  1449  738s
  1236  1094  421.23333   60  249  751.00000   80.00000  89.3%  1448  745s
  1237  1095  286.43070   30  103  751.00000   80.00000  89.3%  1447  784s
  1238  1095  532.50490  151  199  751.00000   80.00000  89.3%  1446  795s
  1239  1096  498.23436  140  125  751.00000   80.00000  89.3%  1444  835s
  1240  1097  283.95614   89  125  751.00000   80.00000  89.3%  1443  845s
  1242  1099   80.00000    9   61  751.00000   80.00000  89.3%  1965  855s
  1244  1100  374.12865   85   60  751.00000   80.00000  89.3%  1962  890s
  1245  1101  389.71689   72   46  751.00000   80.00000  89.3%  1961  929s
  1246  1102  507.82766  139   82  751.00000   80.00000  89.3%  1959  937s
  1247  1102  421.23333   46   36  751.00000   80.00000  89.3%  1957  959s
  1248  1103  284.18421   75  334  751.00000   80.00000  89.3%  1956  968s
  1249  1104  492.05000  113  106  751.00000   80.00000  89.3%  1954  995s
  1250  1104  426.99298  155  170  751.00000   80.00000  89.3%  1953 1003s
  1251  1105  264.18421   57  136  751.00000   80.00000  89.3%  1951 1055s
  1252  1106  302.27222   99  347  751.00000   80.00000  89.3%  1950 1073s
  1253  1106  471.05000  120  125  751.00000   80.26244  89.3%  1948 1117s
  1254  1107  448.57749   83  284  751.00000   80.68456  89.3%  1947 1132s
  1255  1108  399.53388   95  162  751.00000   83.40002  88.9%  1945 1183s
  1256  1108  421.23333   60  265  751.00000   83.63051  88.9%  1943 1199s
  1257  1109  286.43070   30  285  751.00000   83.82821  88.8%  1942 1240s
  1258  1110  532.50490  151  472  751.00000   83.82862  88.8%  1940 1252s
  1259  1110  498.23436  140  263  751.00000   83.84225  88.8%  1939 1303s
  1260  1111  283.95614   89  369  751.00000   83.84590  88.8%  1937 1316s
  1261  1112  720.70343  180  191  751.00000   83.84968  88.8%  1936 1357s
H 1261  1056                     646.9166667   83.85034  87.0%  1936 1372s
  1263  1057  413.94412  130  265  646.91667   83.86210  87.0%  1933 1423s
  1264  1058  374.12865   85  429  646.91667   83.86892  87.0%  1931 1435s
  1265  1058  389.71689   72  243  646.91667   83.87600  87.0%  1930 1490s
  1266  1059  507.82766  139  381  646.91667   83.87600  87.0%  1928 1509s
  1267  1060  421.23333   46  293  646.91667   83.87928  87.0%  1927 1563s
  1268  1060  284.18421   75  321  646.91667   83.87928  87.0%  1925 1567s
  1269  1061  492.05000  113  267  646.91667   83.88927  87.0%  1924 1610s
  1270  1062  426.99298  155  422  646.91667   83.89499  87.0%  1922 1624s
  1271  1062  264.18421   57  221  646.91667   83.90493  87.0%  1921 1666s
  1272  1063  302.27222   99  333  646.91667   83.91313  87.0%  1919 1675s
  1273  1064  471.05000  120  209  646.91667   83.91498  87.0%  1917 1727s
  1274  1064  448.57749   83  390  646.91667   83.91590  87.0%  1916 1737s
  1275  1065  399.53388   95  242  646.91667   83.96290  87.0%  1914 1794s
  1276  1066  421.23333   60  341  646.91667   83.96290  87.0%  1913 1812s
  1277  1066  286.43070   30  267  646.91667   83.96321  87.0%  1911 1866s
  1278  1067  532.50490  151  351  646.91667   85.50000  86.8%  1910 1871s
  1279  1068  498.23436  140  273  646.91667   85.50000  86.8%  1908 1919s
  1280  1068  283.95614   89  383  646.91667   85.50000  86.8%  1907 1924s
  1281  1069  646.91667  180  258  646.91667   85.50000  86.8%  1906 1983s
H 1281  1014                     520.9166667   85.50000  83.6%  1906 2002s
H 1281   963                     506.6666667   85.50000  83.1%  1906 2002s
  1283   964  413.94412  130  265  506.66667   85.50000  83.1%  1903 2057s
  1284   965  374.12865   85  374  506.66667   85.50000  83.1%  1901 2080s
  1285   966  389.71689   72  231  506.66667   85.50000  83.1%  1900 2144s
  1286   966  506.66667  139  339  506.66667   85.50000  83.1%  1898 2161s
  1287   967  421.23333   46  266  506.66667   85.50000  83.1%  1897 2202s
  1288   968  284.18421   75  458  506.66667   85.50000  83.1%  1895 2217s
  1289   968  492.05000  113  273  506.66667   85.50000  83.1%  1894 2292s
  1290   969  426.99298  155  388  506.66667   86.00000  83.0%  1892 2308s
  1291   970  264.18421   57  244  506.66667   86.00000  83.0%  1891 2372s
  1292   970  302.27222   99  387  506.66667   91.00000  82.0%  1889 2380s
  1293   971  471.05000  120  240  506.66667   91.00000  82.0%  1888 2439s
  1294   972  448.57749   83  313  506.66667   91.00000  82.0%  1886 2445s
  1295   972  399.53388   95  265  506.66667   91.00000  82.0%  1885 2493s
  1296   973  421.23333   60  432  506.66667   91.00000  82.0%  1883 2499s
  1297   974  286.43070   30  255  506.66667   91.00000  82.0%  1882 2545s
  1298   974  506.66667  151  524  506.66667   91.00000  82.0%  1881 2562s
  1299   975  498.23436  140  339  506.66667   91.00000  82.0%  1879 2619s
  1300   976  283.95614   89  431  506.66667   91.00000  82.0%  1878 2628s
  1301   976  506.66667  180  187  506.66667   91.00000  82.0%  1876 2684s
  1302   977   91.00000    9  422  506.66667   91.00000  82.0%  1875 2695s
  1303   978  413.94412  130  199  506.66667   91.00000  82.0%  1873 2771s
  1304   978  374.12865   85  400  506.66667   91.00000  82.0%  1872 2783s
  1305   979  389.71689   72  223  506.66667   91.00000  82.0%  1870 2852s
  1306   980  506.66667  139  470  506.66667   91.00000  82.0%  1869 2865s
  1307   980  421.23333   46  308  506.66667   91.00000  82.0%  1868 2919s
  1308   981  284.18421   75  345  506.66667   91.00000  82.0%  1866 2927s
  1309   982  492.05000  113  286  506.66667   91.00000  82.0%  1865 2981s
  1310   982  426.99298  155  514  506.66667   91.00000  82.0%  1863 2992s
  1311   983  264.18421   57  315  506.66667   91.00000  82.0%  1862 3046s
  1312   984  302.27222   99  500  506.66667   91.00000  82.0%  1860 3056s
  1313   984  471.05000  120  294  506.66667   91.00000  82.0%  1859 3129s
  1314   985  448.57749   83  440  506.66667   91.00000  82.0%  1858 3145s
  1315   986  399.53388   95  348  506.66667   91.00000  82.0%  1856 3222s
  1316   986  421.23333   60  492  506.66667  100.66667  80.1%  1855 3230s
  1317   987  286.43070   30  334  506.66667  100.66667  80.1%  1853 3286s
  1318   988  506.66667  151  334  506.66667  100.66667  80.1%  1852 3298s
  1320   990  283.95614   89   61  506.66667  100.66667  80.1%  4074 3313s
  1322   991  100.66667    9  127  506.66667  100.66667  80.1%  4068 3346s
  1323   992  413.94412  130   51  506.66667  100.66667  80.1%  4065 3378s
  1324   993  374.12865   85  463  506.66667  100.66667  80.1%  4062 3394s
  1325   993  389.71689   72  151  506.66667  100.66667  80.1%  4059 3476s
  1326   994  506.66667  139  291  506.66667  100.66667  80.1%  4055 3484s
  1327   995  421.23333   46  233  506.66667  100.66667  80.1%  4052 3530s
  1328   995  284.18421   75  273  506.66667  100.66667  80.1%  4049 3539s
  1329   996  492.05000  113  119  506.66667  100.66667  80.1%  4046 3576s
  1330   997  426.99298  155  314  506.66667  100.66667  80.1%  4043 3587s
  1331   997  264.18421   57  229  506.66667  100.66667  80.1%  4040 3650s
  1332   998  302.27222   99  424  506.66667  100.66667  80.1%  4037 3664s
  1333   999  471.05000  120  251  506.66667  100.66667  80.1%  4034 3704s
  1334   999  448.57749   83  412  506.66667  100.66667  80.1%  4031 3715s
  1335  1000  399.53388   95  294  506.66667  100.66667  80.1%  4028 3774s
  1336  1001  421.23333   60  455  506.66667  100.66667  80.1%  4025 3783s
  1337  1001  286.43070   30  317  506.66667  100.66667  80.1%  4022 3851s
  1338  1002  506.66667  151  259  506.66667  100.66667  80.1%  4019 3885s
  1339  1003  498.23436  140  259  506.66667  100.66667  80.1%  4016 3976s
  1340  1005  136.39103   43  322  506.66667  100.66667  80.1%  4609 4096s
  1341  1006  100.66667   43  544  506.66667  100.66667  80.1%  4630 4165s
  1342  1007  100.66667   44  458  506.66667  100.66667  80.1%  4633 4205s
  1343  1007  108.25000   44  397  506.66667  100.66667  80.1%  4638 4240s
  1344  1008  100.66667   45  345  506.66667  100.66667  80.1%  4638 4267s
  1345  1009  100.66667   45  513  506.66667  100.66667  80.1%  4644 4319s
  1346  1007  100.66667   46  346  506.66667  100.66667  80.1%  4644 4346s
  1347  1012  113.50000   46  334  506.66667  100.66667  80.1%  4650 4407s
  1350  1018  113.50000   47  214  506.66667  100.66667  80.1%  4679 4496s
  1361  1025  214.83333   48  246  506.66667  100.66667  80.1%  4684 4635s
  1380  1032  113.50000   51  144  506.66667  101.33333  80.0%  4681 4763s
  1401  1046  157.75000   54  196  506.66667  101.33333  80.0%  4697 4872s
  1427  1062  128.50000   60  186  506.66667  101.33333  80.0%  4681 4983s
  1478  1099  131.60000   67  276  506.66667  101.33333  80.0%  4642 5085s
  1530  1130  128.50000   76  144  506.66667  101.33333  80.0%  4605 5201s
  1612  1180  128.50000   86  187  506.66667  101.33333  80.0%  4561 5321s
  1743  1266  128.50000   98  147  506.66667  101.33333  80.0%  4422 5434s
  1865  1349  128.50000  117  179  506.66667  101.33333  80.0%  4389 5556s
  2070  1480  154.41667  133  185  506.66667  101.33333  80.0%  4184 5679s
  2243  1596  144.15301  146  430  506.66667  101.33333  80.0%  4081 5803s
  2469  1745  134.57692  177  234  506.66667  101.33333  80.0%  3962 5933s
  2722  1909  130.25556  206  185  506.66667  101.33333  80.0%  3843 6058s
  3053  2093  132.45000  243  167  506.66667  101.33333  80.0%  3676 6195s
  3351  2273  149.84343  281  249  506.66667  101.33333  80.0%  3569 6345s
  3714  2470  157.60278  317  265  506.66667  101.33333  80.0%  3406 6492s
  4060  2683  148.80778  362  243  506.66667  101.33333  80.0%  3299 6648s
  4457  2951  241.33333  432  254  506.66667  102.15909  79.8%  3184 6805s
H 4742  3121                     452.6666667  102.15909  77.4%  3124 6805s
  4749  3133  102.15909   49  242  452.66667  102.15909  77.4%  3133 6966s
H 4809  3169                     447.9166667  102.15909  77.2%  3124 6966s
H 4940  3293                     447.9166666  102.15909  77.2%  3122 6966s
  5097  3446  270.43698   89  386  447.91667  102.15909  77.2%  3053 7160s
  5533  3855  119.51667   56  319  447.91667  102.15909  77.2%  2947 7336s
  6164  4458  136.65205  140  189  447.91667  102.15909  77.2%  2802 7518s
  6887  5092  185.04094  182  314  447.91667  102.15909  77.2%  2651 7707s
  7510  5695  156.31871  257  238  447.91667  102.15909  77.2%  2555 7894s
  8100  6252  193.57958  456  245  447.91667  105.63278  76.4%  2507 8086s
  8599  6696  115.17032   59  418  447.91667  106.16667  76.3%  2510 8293s
  9008  7101  115.28098   74  323  447.91667  106.16667  76.3%  2514 8500s
  9843  7824  149.73126  121  225  447.91667  106.16667  76.3%  2442 8726s
 11034  8832  150.77197  174  460  447.91667  106.16667  76.3%  2313 8970s
 12410 10126  155.92368  248  384  447.91667  106.16667  76.3%  2163 9204s
 13570 11188  162.77540  313  350  447.91667  106.16667  76.3%  2064 9422s
 14616 12188  202.13377  364  325  447.91667  106.16667  76.3%  1993 9636s
 15088 12608  202.85996  395  385  447.91667  106.16667  76.3%  1975 9846s
 15553 13036  214.53274  503  212  447.91667  106.16667  76.3%  1977 10035s
 16404 13783  224.57550  589  376  447.91667  106.16667  76.3%  1947 10231s
 17286 14589  159.75614  169  233  447.91667  106.16667  76.3%  1898 10413s
 18377 15572  148.14079   58  382  447.91667  106.16667  76.3%  1841 10582s
 19360 16489  440.55012  207  231  447.91667  106.16667  76.3%  1803 10754s
H19369 16223                     428.9166667  106.16667  75.2%  1803 10754s
H19457 15275                     378.2500000  106.16667  71.9%  1801 10754s
 19554 15363  134.90066   57  540  378.25000  106.17896  71.9%  1800 10925s
 20834 16521  160.87366  135  620  378.25000  106.18341  71.9%  1736 11089s
 21954 17548  296.70000  210   61  378.25000  106.18904  71.9%  1689 12374s
 21956 17549  217.30000  572   70  378.25000  106.18904  71.9%  1689 12416s
 21957 17550  250.85298  200  867  378.25000  106.18904  71.9%  1689 12505s
 21958 17551  283.73585  211 1175  378.25000  106.18904  71.9%  1688 12543s
 21959 17551  182.12706  257  301  378.25000  106.18904  71.9%  1688 12696s
 21960 17552  320.10294  306 1184  378.25000  106.18904  71.9%  1688 12868s
 21961 17553  165.56667  188  370  378.25000  106.18904  71.9%  1688 13020s
 21962 17553  283.02319  513  444  378.25000  106.18904  71.9%  1688 13161s
 21963 17554  145.62229  134 1193  378.25000  106.18904  71.9%  1688 13352s
 21964 17555  189.20304  269 1227  378.25000  106.18904  71.9%  1688 13460s
 21965 17555  171.74035   99  471  378.25000  106.18904  71.9%  1688 13669s
 21966 17556  220.22778  175 1207  378.25000  106.18904  71.9%  1688 13811s
 21967 17557  190.37286  379 1185  378.25000  106.18904  71.9%  1688 13970s
 21968 17557  158.39352  113  760  378.25000  106.18904  71.9%  1688 14055s
 21969 17558  266.84955  490  471  378.25000  106.18904  71.9%  1688 14185s
 21970 17559  162.11111   73  571  378.25000  106.18904  71.9%  1688 14264s
 21971 17559  279.03590  313  491  378.25000  106.18904  71.9%  1687 14387s
 21972 17560  134.41830  190  639  378.25000  106.18904  71.9%  1687 14462s
 21973 17561  111.68006   74  460  378.25000  106.18904  71.9%  1687 14604s
 21974 17561  296.70000  210  565  378.25000  106.18904  71.9%  1687 14681s
 21975 17562  233.07755   77  512  378.25000  106.18904  71.9%  1687 14812s
 21976 17563  217.30000  572  681  378.25000  106.18904  71.9%  1687 14896s
 21977 17563  250.85298  200  604  378.25000  106.18904  71.9%  1687 15059s
 21978 17564  283.73585  211  751  378.25000  106.18904  71.9%  1687 15143s
 21979 17565  182.12706  257  742  378.25000  106.18904  71.9%  1687 15282s
 21980 17565  320.10294  306  754  378.25000  106.18904  71.9%  1687 15380s
 21981 17566  165.56667  188  975  378.25000  106.18904  71.9%  1687 15515s
 21982 17567  283.02319  513 1108  378.25000  106.18904  71.9%  1687 15584s
 21983 17567  145.62229  134  642  378.25000  106.18904  71.9%  1687 15719s
 21984 17568  189.20304  269  809  378.25000  106.18904  71.9%  1686 15793s
 21985 17569  171.74035   99 1073  378.25000  106.18904  71.9%  1686 15913s
 21986 17569  220.22778  175 1259  378.25000  106.18904  71.9%  1686 15987s
 21987 17570  190.37286  379 1185  378.25000  106.18904  71.9%  1686 16125s
 21988 17571  158.39352  113 1471  378.25000  106.18904  71.9%  1686 16241s
 21989 17571  266.84955  490 1260  378.25000  106.18904  71.9%  1686 16385s
 21990 17572  162.11111   73 1357  378.25000  106.18904  71.9%  1686 16470s
 21991 17573  279.03590  313 1197  378.25000  106.18904  71.9%  1686 16607s
 21992 17573  134.41830  190 1190  378.25000  106.18904  71.9%  1686 16674s
 21993 17574  111.68006   74 1175  378.25000  106.18904  71.9%  1686 16840s
 21994 17575  296.70000  210 1119  378.25000  106.18904  71.9%  1686 16953s
 21995 17575  233.07755   77  918  378.25000  106.18904  71.9%  1686 17064s
 21996 17576  217.30000  572 1173  378.25000  106.18904  71.9%  1686 17165s
 21997 17577  250.85298  200  896  378.25000  106.18904  71.9%  1685 17308s
 21998 17577  283.73585  211 1128  378.25000  106.18904  71.9%  1685 17402s
 21999 17578  182.12706  257  927  378.25000  106.18904  71.9%  1685 17556s
 22000 17579  320.10294  306 1007  378.25000  106.18904  71.9%  1685 17632s
 22001 17579  165.56667  188  958  378.25000  106.18904  71.9%  1685 17765s
 22002 17580  283.02319  513 1057  378.25000  106.18904  71.9%  1685 17847s
 22003 17581  145.62229  134  812  378.25000  106.18904  71.9%  1685 18000s
 22004 17581  189.20304  269  992  378.25000  106.18904  71.9%  1685 18092s
 22005 17582  171.74035   99  789  378.25000  106.18904  71.9%  1685 18221s
 22006 17583  220.22778  175  959  378.25000  106.18904  71.9%  1685 18394s
 22007 17583  190.37286  379  752  378.25000  106.18904  71.9%  1685 18534s
 22008 17584  158.39352  113  900  378.25000  106.18904  71.9%  1685 18639s
 22009 17585  266.84955  490  584  378.25000  106.18904  71.9%  1685 18751s
 22010 17585  162.11111   73  774  378.25000  106.18904  71.9%  1684 18813s
 22011 17586  279.03590  313  654  378.25000  106.18904  71.9%  1684 18936s
 22012 17587  134.41830  190  861  378.25000  106.18904  71.9%  1684 19012s
 22013 17587  111.68006   74  664  378.25000  106.18904  71.9%  1684 19133s
 22014 17588  296.70000  210  825  378.25000  106.18904  71.9%  1684 19203s
 22015 17589  233.07755   77  691  378.25000  106.18904  71.9%  1684 19344s
 22016 17589  217.30000  572  843  378.25000  106.18904  71.9%  1684 19404s
 22017 17590  250.85298  200  649  378.25000  106.18904  71.9%  1684 19490s
 22018 17591  283.73585  211  770  378.25000  106.18904  71.9%  1684 19551s
 22019 17591  182.12706  257  738  378.25000  106.18904  71.9%  1684 19624s
 22020 17592  320.10294  306  779  378.25000  106.18904  71.9%  1684 19665s
 22021 17593  165.56667  188  764  378.25000  106.18904  71.9%  1684 19774s
 22022 17593  283.02319  513  874  378.25000  106.18904  71.9%  1684 19836s
 22023 17594  145.62229  134  674  378.25000  106.18904  71.9%  1683 19914s
 22024 17595  189.20304  269  825  378.25000  106.18904  71.9%  1683 19968s
 22025 17595  171.74035   99  776  378.25000  106.18904  71.9%  1683 20061s
 22026 17596  220.22778  175  867  378.25000  106.18904  71.9%  1683 20139s
 22027 17597  190.37286  379  711  378.25000  106.18904  71.9%  1683 20241s
 22028 17597  158.39352  113  795  378.25000  106.18904  71.9%  1683 20294s
 22029 17598  266.84955  490  927  378.25000  106.18904  71.9%  1683 20395s
 22030 17599  162.11111   73  953  378.25000  106.18904  71.9%  1683 20447s
 22031 17599  279.03590  313  830  378.25000  106.18904  71.9%  1683 20527s
 22032 17600  134.41830  190  943  378.25000  106.18904  71.9%  1683 20572s
 22033 17601  111.68006   74  872  378.25000  106.18904  71.9%  1683 20647s
 22034 17601  296.70000  210  941  378.25000  106.18904  71.9%  1683 20686s
 22035 17602  233.07755   77  793  378.25000  106.18904  71.9%  1683 20754s
 22036 17603  217.30000  572  776  378.25000  106.18904  71.9%  1682 20791s
 22037 17603  250.85298  200  947  378.25000  106.18904  71.9%  1682 20871s
 22038 17604  283.73585  211 1022  378.25000  106.18904  71.9%  1682 20913s
 22039 17605  182.12706  257  639  378.25000  106.18904  71.9%  1682 20991s
 22040 17605  320.10294  306  992  378.25000  106.18904  71.9%  1682 21035s
 22041 17606  165.56667  188  967  378.25000  106.18904  71.9%  1682 21099s
 22042 17607  283.02319  513  852  378.25000  106.18904  71.9%  1682 21140s
 22043 17607  145.62229  134  858  378.25000  106.18904  71.9%  1682 21197s
 22044 17608  189.20304  269  813  378.25000  106.18904  71.9%  1682 21240s
 22045 17609  171.74035   99  758  378.25000  106.18904  71.9%  1682 21320s
 22046 17609  220.22778  175 1032  378.25000  106.18904  71.9%  1682 21381s
 22047 17610  190.37286  379  921  378.25000  106.18904  71.9%  1682 21453s
 22048 17611  158.39352  113  977  378.25000  106.18904  71.9%  1682 21490s
 22049 17611  266.84955  490  893  378.25000  106.18904  71.9%  1681 21564s
 22050 17612  162.11111   73 1008  378.25000  106.18904  71.9%  1681 21606s
 22051 17613  279.03590  313  783  378.25000  106.18904  71.9%  1681 21700s
 22052 17613  134.41830  190  891  378.25000  106.18904  71.9%  1681 21748s
 22053 17614  111.68006   74  815  378.25000  106.18904  71.9%  1681 21843s
 22054 17615  296.70000  210  901  378.25000  106.18904  71.9%  1681 21887s
 22055 17615  233.07755   77  817  378.25000  106.18904  71.9%  1681 21971s
 22056 17616  217.30000  572  911  378.25000  106.18904  71.9%  1681 22019s
 22057 17617  250.85298  200  860  378.25000  106.18904  71.9%  1681 22105s
 22058 17617  283.73585  211  809  378.25000  106.18904  71.9%  1681 22160s
 22059 17618  182.12706  257  841  378.25000  106.18904  71.9%  1681 22243s
 22060 17619  320.10294  306  874  378.25000  106.18904  71.9%  1681 22286s
 22061 17619  165.56667  188  813  378.25000  106.18904  71.9%  1681 22362s
 22062 17620  283.02319  513  833  378.25000  106.18904  71.9%  1681 22402s
 22063 17621  145.62229  134  823  378.25000  106.18904  71.9%  1680 22474s
 22064 17621  189.20304  269  854  378.25000  106.18904  71.9%  1680 22519s
 22065 17622  171.74035   99  849  378.25000  106.18904  71.9%  1680 22599s
 22066 17623  220.22778  175  943  378.25000  106.18904  71.9%  1680 22664s
 22067 17623  190.37286  379  850  378.25000  106.18904  71.9%  1680 22742s
 22068 17624  158.39352  113  888  378.25000  106.18904  71.9%  1680 22791s
 22069 17625  266.84955  490  963  378.25000  106.18904  71.9%  1680 22848s
 22070 17625  162.11111   73  958  378.25000  106.18904  71.9%  1680 22880s
 22071 17626  279.03590  313  992  378.25000  106.18904  71.9%  1680 22931s
 22072 17627  134.41830  190  941  378.25000  106.18904  71.9%  1680 22960s
 22073 17627  111.68006   74 1003  378.25000  106.18904  71.9%  1680 23016s
 22074 17628  296.70000  210 1043  378.25000  106.18904  71.9%  1680 23049s
 22075 17629  233.07755   77 1057  378.25000  106.18904  71.9%  1680 23103s
 22076 17629  217.30000  572 1034  378.25000  106.18904  71.9%  1679 23137s
 22077 17630  250.85298  200 1043  378.25000  106.18904  71.9%  1679 23191s
 22078 17631  283.73585  211 1050  378.25000  106.18904  71.9%  1679 23225s
 22079 17631  182.12706  257 1003  378.25000  106.18904  71.9%  1679 23283s
 22080 17632  320.10294  306  867  378.25000  106.18904  71.9%  1679 23313s
 22081 17633  165.56667  188  998  378.25000  106.18904  71.9%  1679 23374s
 22082 17633  283.02319  513 1136  378.25000  106.18904  71.9%  1679 23408s
 22083 17634  145.62229  134 1086  378.25000  106.18904  71.9%  1679 23467s
 22084 17635  189.20304  269 1151  378.25000  106.18904  71.9%  1679 23506s
 22085 17635  171.74035   99 1177  378.25000  106.18904  71.9%  1679 23580s
 22086 17636  220.22778  175 1150  378.25000  106.18904  71.9%  1679 23611s
 22087 17637  190.37286  379 1220  378.25000  106.18904  71.9%  1679 23647s
 22088 17637  158.39352  113 1241  378.25000  106.18904  71.9%  1679 23678s
 22089 17638  266.84955  490 1177  378.25000  106.18904  71.9%  1678 23718s
 22090 17639  162.11111   73 1209  378.25000  106.18904  71.9%  1678 23752s
 22091 17639  279.03590  313 1232  378.25000  106.18904  71.9%  1678 23786s
 22092 17640  134.41830  190 1203  378.25000  106.18904  71.9%  1678 23818s
 22093 17641  111.68006   74 1181  378.25000  106.18904  71.9%  1678 23857s
 22094 17641  296.70000  210 1175  378.25000  106.18904  71.9%  1678 23896s
 22095 17642  233.07755   77 1165  378.25000  106.18904  71.9%  1678 23936s
 22096 17643  217.30000  572 1171  378.25000  106.18904  71.9%  1678 23970s
 22097 17643  250.85298  200 1100  378.25000  106.18904  71.9%  1678 24033s
 22098 17644  283.73585  211 1150  378.25000  106.18904  71.9%  1678 24062s
 22099 17645  182.12706  257 1201  378.25000  106.18904  71.9%  1678 24093s
 22100 17645  320.10294  306 1278  378.25000  106.18904  71.9%  1678 24122s
 22101 17646  165.56667  188 1328  378.25000  106.18904  71.9%  1678 24162s
 22102 17647  283.02319  513 1270  378.25000  106.18904  71.9%  1677 24192s
 22103 17647  145.62229  134 1364  378.25000  106.18904  71.9%  1677 24230s
 22104 17648  189.20304  269 1358  378.25000  106.18904  71.9%  1677 24257s
 22105 17649  171.74035   99 1324  378.25000  106.18904  71.9%  1677 24298s
 22106 17649  220.22778  175 1358  378.25000  106.18904  71.9%  1677 24327s
 22107 17650  190.37286  379 1351  378.25000  106.18904  71.9%  1677 24362s
 22108 17651  158.39352  113 1339  378.25000  106.18904  71.9%  1677 24390s
 22109 17651  266.84955  490 1301  378.25000  106.18904  71.9%  1677 24422s
 22110 17652  162.11111   73 1301  378.25000  106.18904  71.9%  1677 24445s
 22111 17653  279.03590  313 1285  378.25000  106.18904  71.9%  1677 24485s
 22112 17653  134.41830  190 1207  378.25000  106.18904  71.9%  1677 24516s
 22113 17654  111.68006   74 1203  378.25000  106.18904  71.9%  1677 24544s
 22114 17655  296.70000  210 1198  378.25000  106.18904  71.9%  1677 24574s
 22115 17655  233.07755   77 1207  378.25000  106.18904  71.9%  1676 24607s
 22116 17656  217.30000  572 1215  378.25000  106.18904  71.9%  1676 24633s
 22117 17657  250.85298  200 1293  378.25000  106.18904  71.9%  1676 24667s
 22118 17657  283.73585  211 1298  378.25000  106.18904  71.9%  1676 24694s
 22119 17658  182.12706  257 1298  378.25000  106.18904  71.9%  1676 24728s
 22120 17659  320.10294  306 1270  378.25000  106.18904  71.9%  1676 24752s
 22121 17659  165.56667  188 1304  378.25000  106.18904  71.9%  1676 24788s
 22122 17660  283.02319  513 1266  378.25000  106.18904  71.9%  1676 24819s
 22123 17661  145.62229  134 1259  378.25000  106.18904  71.9%  1676 24851s
 22124 17661  189.20304  269 1294  378.25000  106.18904  71.9%  1676 24877s
 22125 17662  171.74035   99 1279  378.25000  106.18904  71.9%  1676 24908s
 22126 17663  220.22778  175 1313  378.25000  106.18904  71.9%  1676 24933s
 22127 17663  190.37286  379 1239  378.25000  106.18904  71.9%  1676 24985s
 22128 17664  158.39352  113 1116  378.25000  106.18904  71.9%  1675 25013s
 22129 17665  266.84955  490 1231  378.25000  106.18904  71.9%  1675 25077s
 22130 17665  162.11111   73 1216  378.25000  106.18904  71.9%  1675 25105s
H22130 16778                     378.2500000  106.18904  71.9%  1675 25143s
 22132 16780  134.41830  190 1272  378.25000  106.18904  71.9%  1675 25177s
 22133 16780  111.68006   74 1241  378.25000  106.18904  71.9%  1675 25210s
 22134 16781  296.70000  210 1290  378.25000  106.18904  71.9%  1675 25242s
 22135 16782  233.07755   77 1187  378.25000  106.18904  71.9%  1675 25273s
 22136 16782  217.30000  572 1261  378.25000  106.18904  71.9%  1675 25298s
 22137 16783  250.85298  200 1150  378.25000  106.18904  71.9%  1675 25334s
 22138 16784  283.73585  211 1180  378.25000  106.18904  71.9%  1675 25361s
H22138 15942                     378.2499999  106.18904  71.9%  1675 25394s
 22140 15943  320.10294  306 1227  378.25000  106.18904  71.9%  1675 25420s
 22141 15944  165.56667  188 1308  378.25000  106.18904  71.9%  1675 25453s
 22142 15944  283.02319  513 1268  378.25000  106.18904  71.9%  1674 25480s
 22143 15945  145.62229  134 1313  378.25000  106.18904  71.9%  1674 25509s
 22144 15946  189.20304  269 1290  378.25000  106.18904  71.9%  1674 25535s
H22144 15146                     378.2499999  106.18904  71.9%  1674 25566s
 22146 15147  220.22778  175 1204  378.25000  106.18904  71.9%  1674 25590s
 22147 15148  190.37286  379 1195  378.25000  106.18904  71.9%  1674 25626s
 22148 15148  158.39352  113 1177  378.25000  106.18904  71.9%  1674 25654s
 22149 15149  266.84955  490 1137  378.25000  106.18904  71.9%  1674 25686s
 22150 15150  162.11111   73 1163  378.25000  106.18904  71.9%  1674 25717s
 22151 15150  279.03590  313 1180  378.25000  106.18904  71.9%  1674 25747s
 22152 15151  134.41830  190 1249  378.25000  106.18904  71.9%  1674 25774s
 22153 15152  111.68006   74 1261  378.25000  106.18904  71.9%  1674 25812s
 22154 15152  296.70000  210 1277  378.25000  106.18904  71.9%  1674 25837s
 22155 15153  233.07755   77 1192  378.25000  106.18904  71.9%  1673 25947s
 22156 15154  217.30000  572 1192  378.25000  106.18904  71.9%  1673 26062s
 22157 15156  106.18904   52 1251  378.25000  106.18904  71.9%  1824 26302s
 22158 15157  107.56938   52 1205  378.25000  106.18904  71.9%  1825 26547s
 22159 15158  106.18904   53 1204  378.25000  106.18904  71.9%  1825 26767s
 22160 15158  123.83328   53 1050  378.25000  106.18904  71.9%  1826 26992s
 22161 15159  106.18904   54 1196  378.25000  106.18904  71.9%  1826 27214s
 22162 15160  131.50577   54 1104  378.25000  106.18904  71.9%  1829 27473s
 22163 15158  106.18904   55 1226  378.25000  106.18904  71.9%  1829 27699s
 22164 15163  125.00719   55 1050  378.25000  106.18904  71.9%  1831 28023s
 22167 15169  108.14537   56 1265  378.25000  107.98323  71.5%  1832 28713s
 22178 15179  109.07679   57 1081  378.25000  109.07679  71.2%  1841 29442s
 22202 15185  127.59445   60 1136  378.25000  110.33324  70.8%  1859 30152s
 22241 15213  131.59908   64  773  378.25000  110.33324  70.8%  1884 30835s
 22319 15261  131.76023   76  982  378.25000  110.33324  70.8%  1911 31563s
 22422 15331  132.20422   90  953  378.25000  110.33324  70.8%  1945 32382s
 22549 15420  132.85827  107  942  378.25000  110.33324  70.8%  1980 33158s
 22688 15514  133.56309  124  951  378.25000  110.33324  70.8%  2015 33973s
 22837 15608  133.88013  141  980  378.25000  110.33324  70.8%  2060 34847s
 23005 15725  134.54637  156 1012  378.25000  110.33324  70.8%  2106 35749s
 23229 15869  135.01450  175 1011  378.25000  110.33324  70.8%  2148 36713s
 23511 16049  137.13101  194  796  378.25000  110.33324  70.8%  2192 37703s
 23990 16238  136.53840  216  749  378.25000  110.33324  70.8%  2220 38720s
 24621 16632  137.44389  236  914  378.25000  110.33324  70.8%  2243 39847s
 25408 17034  138.26426  259  926  378.25000  110.33324  70.8%  2269 40949s
 25736 17169  140.65370  283  915  378.25000  110.33324  70.8%  2324 42074s
H25984 16554                     378.2499998  110.33324  70.8%  2337 42074s
 26462 16773  141.71353  311  910  378.25000  110.33324  70.8%  2345 43478s
 27600 17453  142.35356  338  869  378.25000  110.33324  70.8%  2329 44959s
H27652 16295                     340.0000000  110.33324  67.5%  2342 44959s
 28566 16858  143.74522  364  936  340.00000  110.33324  67.5%  2320 46572s
 29824 17638  145.37514  401  929  340.00000  110.33324  67.5%  2300 48217s
H29965 17047                     340.0000000  110.33324  67.5%  2325 48217s
 31037 17709  146.64867  428  887  340.00000  110.33324  67.5%  2274 49614s
 32015 18271  147.72163  458  963  340.00000  110.33324  67.5%  2280 51018s
 32804 18732  148.25179  490  976  340.00000  110.33324  67.5%  2312 52382s
 33474 19116  149.02749  513  993  340.00000  110.33324  67.5%  2341 53734s
 34200 19537  149.49048  538 1062  340.00000  110.33324  67.5%  2374 55088s
 34790 19916  150.08659  564  995  340.00000  110.33324  67.5%  2412 56401s
 35603 20446  150.69903  591 1048  340.00000  110.33324  67.5%  2434 57667s
 36443 20920  151.22401  616 1068  340.00000  110.33324  67.5%  2454 58872s
 37538 21587  153.61514  638 1103  340.00000  110.33324  67.5%  2451 60027s
 38512 22170  153.95570  662 1135  340.00000  110.33324  67.5%  2450 61153s
 39313 22658  154.62596  685 1075  340.00000  110.33324  67.5%  2461 62243s
 40026 23027  155.28540  713 1042  340.00000  110.33324  67.5%  2476 63334s
 40834 23318  156.53875  734 1123  340.00000  110.33324  67.5%  2482 64425s
H41400 20518                     304.4500000  110.33324  63.8%  2485 64425s
 41494 20575  157.09062  758 1097  304.45000  110.33324  63.8%  2494 65470s
 42184 20917  157.60951  786 1048  304.45000  110.33324  63.8%  2501 66468s
 43227 21534  158.31016  814  995  304.45000  110.33324  63.8%  2483 67445s
 45113 22740  159.94155  842  992  304.45000  110.33324  63.8%  2419 68351s
H45598 22409                     304.4500000  110.33324  63.8%  2423 68351s
 45954 22614  161.51814  873  954  304.45000  110.33324  63.8%  2415 69275s
 47032 23258  162.64613  902  969  304.45000  110.33324  63.8%  2402 70150s
 48235 24013  163.56816  937  871  304.45000  110.33324  63.8%  2381 71009s
 48858 24365  164.83919  969  915  304.45000  110.33324  63.8%  2386 71862s
 49897 24993  166.21004 1004  912  304.45000  110.33324  63.8%  2379 72696s
 50634 25408  167.68586 1044  866  304.45000  110.33324  63.8%  2379 73515s
 51145 25682  170.40977 1086  868  304.45000  110.33324  63.8%  2392 74346s
 51748 26041  171.80226 1134  939  304.45000  110.33324  63.8%  2398 75181s
 52471 26498  222.48795 1184  661  304.45000  110.33324  63.8%  2400 75974s
 53466 27129  198.11603 1235  849  304.45000  110.33324  63.8%  2388 76772s
 54089 27493  180.85390 1285  793  304.45000  110.33324  63.8%  2393 77564s
 54830 27937  186.07822 1341  831  304.45000  110.33324  63.8%  2394 78336s
 55478 28315  190.54506 1404  684  304.45000  110.33324  63.8%  2396 79114s
 55913 28497  202.22590 1482  668  304.45000  110.33324  63.8%  2409 79887s
 56485 28796  280.60607 1566  560  304.45000  110.33324  63.8%  2415 79999s

Cutting planes:
  Gomory: 3
  Cover: 114
  Implied bound: 1313
  Clique: 3
  MIR: 4008
  Flow cover: 1723
  Zero half: 3

Explored 56584 nodes (136948044 simplex iterations) in 79999.98 seconds
Thread count was 8 (of 8 available processors)

Solve interrupted
Best objective 3.044499999694e+02, best bound 1.103332418829e+02, gap 63.7598%

Solution:
0 14 16 13 11 9 3 17 6 8 19 
1 0 0 1 0 0 1 0 0 0 0 

Cost: 304.45
Lower Bound: 110.333
